data;

set J := 1 2 3 4;
set M := 1 2 3;

param num_J = 4;
param num_M = 3;

param p := 1 1 5
		   2 1 6
		   3 1 4
		   1 2 8
		   2 2 4
		   3 2 3
		   1 3 3
		   2 3 1
		   3 3 3
		   1 4 7
		   2 4 4
		   3 4 8;

param s := 1 3
		   2 2
		   3 4;
		   
param pi := 1 1
			2 2
			3 3
			4 4;